TITL p-1-firsttry_a.res in P-1
    p-1_a.res
    created by SHELXL-2018/3 at 14:35:25 on 07-Oct-2022
REM Old TITL p-1-firsttry in P-1
REM SHELXT solution in P-1
REM R1 0.168,  Rweak 0.021,  Alpha 0.075,  Orientation as input
REM Formula found by SHELXT:  C57 O16 F113 Al4 Ni2
CELL  0.71073  10.6594  20.6268  23.5458   73.125   89.828   80.746
ZERR   4.000   0.0030   0.0058   0.0051    0.006    0.013    0.010
LATT  1
SFAC  C  O  F  AL  NI H
UNIT 1 50 60 8 1 1
EADP F8_1 F6_13
EADP F2_1 F2_13
EADP C2_13 C2_1
EADP O1_13 O1_1

REM Restraints for Fragment oc(cf3)3, Nonafluoro-tert-butoxy, [(CF3)3CO]-
REM from: TURBOMOLE V6.0 B-P86/def-SV(P). Please cite
REM https://doi.org/10.1107/S1600576718004508
SADI_CCF3 0.02 C1 C2 C1 C3 C1 C4
SADI_CCF3 0.02 F1 C2 F2 C2 F3 C2 F4 C3 F5 C3 F6 C3 F7 C4 F8 C4 F9 C4
SADI_CCF3 0.04 C2 C3 C3 C4 C2 C4
SADI_CCF3 0.04 O1 C2 O1 C3 O1 C4
SADI_CCF3 0.04 F1 F2 F2 F3 F3 F1 F4 F5 F5 F6 F6 F4 F7 F8 F8 F9 F9 F7
SADI_CCF3 0.02 O1 C1
SADI_CCF3 0.04 F1 C1 F2 C1 F3 C1 F4 C1 F5 C1 F6 C1 F7 C1 F8 C1 F9 C1
SIMU_CCF3 O1 > F9
RIGU_CCF3 O1 > F9
SAME_CCF3 O1 > F9
SIMU 0.04 0.08 1
TEMP -173.150
L.S. 10
more -1
BOND $H
LIST 4
OMIT -4 3 16
OMIT -4 3 17
OMIT -6 3 13
OMIT 0 5 20
ACTA
FMAP 2
PLAN 20

WGHT    0.073300   16.667999
FVAR       0.19087   0.88670
NI1   5   -0.150037    0.750163    0.309102    11.00000    0.02490    0.04002 =
         0.02634   -0.00993   -0.00215   -0.00470
O1    2   -0.032646    0.669126    0.431995    11.00000    0.03396    0.06367 =
         0.03116   -0.00066   -0.00265   -0.00818
C1    1   -0.076129    0.700248    0.387206    11.00000    0.02596    0.03966 =
         0.03493   -0.00998    0.00540   -0.00934
AL1   4    1.017252    0.981582    0.577851    11.00000    0.01425    0.02479 =
         0.01675   -0.00673    0.00041   -0.00624
F1    3    1.000000    1.000000    0.500000    10.50000    0.01869    0.03147 =
         0.01663   -0.00784   -0.00034   -0.00721
NI2   5    1.367329    0.739603    0.796371    11.00000    0.04802    0.04278 =
         0.05022   -0.01744    0.01878   -0.01477
O2    2    0.069664    0.821704    0.255449    11.00000    0.04046    0.05458 =
         0.03690   -0.00580    0.00370   -0.01528
C2    1   -0.009991    0.795676    0.275160    11.00000    0.03302    0.03874 =
         0.02924   -0.00730   -0.00439   -0.00103
F2    3    0.500000    0.500000    0.500000    10.50000    0.01975    0.02762 =
         0.01537   -0.00835   -0.00009   -0.00790
AL2   4    0.507549    0.521397    0.567758    11.00000    0.01605    0.02304 =
         0.01616   -0.00661   -0.00030   -0.00624
AL3   4    0.492496    1.016976    0.922167    11.00000    0.01275    0.01979 =
         0.01396   -0.00554   -0.00049   -0.00357
O3    2   -0.410140    0.806631    0.344356    11.00000    0.03397    0.10801 =
         0.03816   -0.02390   -0.00223    0.01016
C3    1   -0.316020    0.784856    0.330964    11.00000    0.03553    0.06500 =
         0.02299   -0.01232   -0.00738   -0.00462
F3    3    0.500000    1.000000    1.000000    10.50000    0.02005    0.02765 =
         0.01233   -0.00701    0.00224   -0.00750
C8    1    1.432210    0.680870    0.872941    11.00000    0.03311    0.06058 =
         0.05639   -0.03023    0.00657   -0.00607
O8    2    1.469930    0.645990    0.917536    11.00000    0.03930    0.08446 =
         0.06097   -0.03303   -0.00220   -0.00084
C7    1    1.324702    0.673192    0.758731    11.00000    0.05499    0.04954 =
         0.03622   -0.00528    0.01163   -0.00825
O7    2    1.300359    0.636815    0.736182    11.00000    0.07399    0.06355 =
         0.04306   -0.02189    0.00472   -0.01945
C6    1    1.237815    0.801384    0.819684    11.00000    0.06698    0.03429 =
         0.03988   -0.01560    0.01355   -0.00957
O6    2    1.159207    0.836429    0.832183    11.00000    0.07542    0.04602 =
         0.06341   -0.01635    0.00822    0.00113
C5    1    1.504713    0.780291    0.753214    11.00000    0.04759    0.03913 =
         0.03735   -0.01834    0.00260   -0.00837
O5    2    1.585169    0.800760    0.729417    11.00000    0.05885    0.05899 =
         0.06533   -0.02579    0.02484   -0.03100
F4    3    1.000000    0.500000    1.000000    10.50000    0.01903    0.02443 =
         0.01830   -0.00872   -0.00297   -0.00403
O4    2   -0.207948    0.689571    0.210370    11.00000    0.06373    0.05374 =
         0.04065   -0.02212   -0.01053   -0.00280
C4    1   -0.189847    0.713809    0.245288    11.00000    0.03588    0.03421 =
         0.03164   -0.00500   -0.00246    0.00316
AL4   4    0.993571    0.464341    0.939941    11.00000    0.01338    0.02287 =
         0.01762   -0.00829   -0.00107   -0.00481
RESI CCF3 1
PART 1 21
O1    2    1.175141    0.970664    0.596503    21.00000    0.01718    0.05667 =
         0.02704   -0.02169   -0.00109   -0.00832
C1    1    1.272936    0.996805    0.614792    21.00000    0.02199    0.05544 =
         0.02350   -0.01228   -0.00402   -0.01419
C2    1    1.261086    0.992374    0.681250    21.00000    0.02868    0.06034 =
         0.02733   -0.01602   -0.00034   -0.01597
F1    3    1.291677    0.926385    0.715338    21.00000    0.05592    0.06442 =
         0.02925    0.00204   -0.01008   -0.02275
F2    3    1.336764    1.028330    0.699338    21.00000    0.04178    0.07929 =
         0.03800   -0.02625   -0.00628   -0.02620
F3    3    1.142385    1.015461    0.692894    21.00000    0.03365    0.08516 =
         0.03205   -0.02669    0.00360   -0.01986
C3    1    1.272301    1.072521    0.578396    21.00000    0.04059    0.05802 =
         0.02993   -0.01135    0.00099   -0.02111
F4    3    1.239448    1.081587    0.522047    21.00000    0.07429    0.06909 =
         0.02906   -0.00007   -0.00666   -0.01915
F5    3    1.189476    1.115706    0.598393    21.00000    0.04280    0.05225 =
         0.05415   -0.01673   -0.00819   -0.01393
F6    3    1.387417    1.089959    0.580975    21.00000    0.04428    0.07320 =
         0.07033   -0.00345    0.00236   -0.03331
C4    1    1.398667    0.951036    0.606559    21.00000    0.01964    0.06861 =
         0.03707   -0.01858   -0.00576   -0.01180
F7    3    1.427890    0.966568    0.550324    21.00000    0.02732    0.10214 =
         0.04155   -0.02696    0.00697   -0.01786
F8    3    1.495470    0.958429    0.639500    21.00000    0.02349    0.08578 =
         0.06069   -0.02428   -0.01859   -0.01025
F9    3    1.387552    0.884751    0.624400    21.00000    0.03329    0.06655 =
         0.05179   -0.01827   -0.01059   -0.00488
PART 0
RESI 0
RESI CCF3 2
O1    2    0.932436    1.049240    0.595818    11.00000    0.03103    0.03625 =
         0.03225   -0.01844   -0.00651    0.00255
C1    1    0.827134    1.097930    0.588452    11.00000    0.02600    0.03090 =
         0.03421   -0.01208    0.00323   -0.00381
C2    1    0.766768    1.091259    0.649144    11.00000    0.04847    0.04214 =
         0.03894   -0.01402    0.01198   -0.01344
F1    3    0.699667    1.040488    0.662972    11.00000    0.07800    0.07598 =
         0.05086   -0.01167    0.02254   -0.04795
F2    3    0.688404    1.149080    0.649446    11.00000    0.06414    0.06399 =
         0.05645   -0.02892    0.02788    0.00205
F3    3    0.855553    1.078340    0.692527    11.00000    0.07556    0.05427 =
         0.02882   -0.01571    0.00944   -0.01795
C3    1    0.868344    1.169465    0.565281    11.00000    0.03401    0.03721 =
         0.03047   -0.01283    0.00255   -0.01031
F4    3    0.950291    1.170095    0.522748    11.00000    0.04206    0.07179 =
         0.02980   -0.01328    0.00755   -0.02668
F5    3    0.926763    1.184777    0.608377    11.00000    0.05400    0.04336 =
         0.04178   -0.01627   -0.00550   -0.01875
F6    3    0.770691    1.219327    0.543523    11.00000    0.05061    0.03417 =
         0.05737   -0.00930   -0.01052   -0.00292
C4    1    0.728937    1.090051    0.543535    11.00000    0.02321    0.03618 =
         0.04252   -0.01766   -0.00094   -0.00182
F7    3    0.766304    1.112740    0.488371    11.00000    0.03703    0.05312 =
         0.03335   -0.01592   -0.00702   -0.00544
F8    3    0.613875    1.124640    0.546142    11.00000    0.01954    0.05416 =
         0.08223   -0.02360    0.00108   -0.00222
F9    3    0.721330    1.024114    0.553964    11.00000    0.05107    0.03654 =
         0.06490   -0.01479   -0.01742   -0.01334
RESI 0
RESI CCF3 3
O1    2    0.963277    0.905299    0.598402    11.00000    0.03989    0.02833 =
         0.02497   -0.00471    0.00286   -0.01539
C1    1    0.953394    0.848135    0.643004    11.00000    0.03455    0.02592 =
         0.02411   -0.00443    0.00818   -0.00935
C2    1    0.916624    0.866884    0.700815    11.00000    0.05394    0.04349 =
         0.03393   -0.01658    0.01458   -0.02112
F1    3    0.793418    0.894624    0.696982    11.00000    0.05348    0.07622 =
         0.06733   -0.03718    0.03166   -0.01592
F2    3    0.937718    0.813486    0.749199    11.00000    0.10584    0.05014 =
         0.02689   -0.00915    0.01614   -0.03700
F3    3    0.981889    0.913932    0.707994    11.00000    0.07364    0.04571 =
         0.03728   -0.01785    0.00462   -0.02829
C3    1    1.081144    0.797265    0.655153    11.00000    0.04326    0.03999 =
         0.03660   -0.00740    0.00461   -0.00762
F4    3    1.134863    0.794058    0.606036    11.00000    0.04662    0.05683 =
         0.05531   -0.01931    0.01837   -0.00054
F5    3    1.164409    0.818850    0.686184    11.00000    0.04651    0.06085 =
         0.05328   -0.00240   -0.01249   -0.01368
F6    3    1.067735    0.733840    0.686879    11.00000    0.06578    0.03206 =
         0.06461    0.00240    0.00027   -0.00201
C4    1    0.848766    0.813708    0.623696    11.00000    0.05078    0.04009 =
         0.03517   -0.01214    0.00694   -0.02112
F7    3    0.892748    0.786259    0.581054    11.00000    0.08358    0.05634 =
         0.04273   -0.02706    0.01809   -0.04193
F8    3    0.815917    0.763943    0.668628    11.00000    0.06179    0.04645 =
         0.04397   -0.00879    0.01312   -0.03406
F9    3    0.745342    0.858524    0.602287    11.00000    0.04065    0.06166 =
         0.05603   -0.00854   -0.00516   -0.02382
RESI 0
RESI CCF3 4
O1    2    0.363899    0.514302    0.598667    11.00000    0.01616    0.03249 =
         0.02015   -0.00790    0.00141   -0.00753
C1    1    0.234433    0.528612    0.594328    11.00000    0.01530    0.03758 =
         0.01736   -0.00856    0.00132   -0.00988
C2    1    0.184080    0.500125    0.657017    11.00000    0.02298    0.04855 =
         0.02287   -0.00968    0.00387   -0.01010
F1    3    0.192955    0.431686    0.672176    11.00000    0.03618    0.04699 =
         0.03328    0.00124    0.00746   -0.01689
F2    3    0.062227    0.526631    0.659572    11.00000    0.02268    0.07120 =
         0.03322   -0.01412    0.01099   -0.00558
F3    3    0.250495    0.514736    0.697942    11.00000    0.03604    0.06835 =
         0.01767   -0.01650    0.00224   -0.01096
C3    1    0.188493    0.607111    0.571191    11.00000    0.02178    0.03783 =
         0.02502   -0.00932   -0.00127   -0.00342
F4    3    0.256572    0.635147    0.526123    11.00000    0.03273    0.03696 =
         0.03242    0.00066    0.00043   -0.00813
F5    3    0.200684    0.636785    0.613508    11.00000    0.03766    0.04175 =
         0.04334   -0.02236   -0.00431   -0.00064
F6    3    0.066024    0.622672    0.551958    11.00000    0.02011    0.05162 =
         0.04631   -0.00937   -0.00863    0.00321
C4    1    0.184512    0.492582    0.551834    11.00000    0.01991    0.04538 =
         0.02692   -0.01363    0.00542   -0.01421
F7    3    0.201311    0.526421    0.495709    11.00000    0.03599    0.06113 =
         0.02418   -0.01604    0.00171   -0.01706
F8    3    0.061629    0.488419    0.557526    11.00000    0.02034    0.06760 =
         0.04306   -0.02213    0.00108   -0.02141
F9    3    0.248187    0.429035    0.562538    11.00000    0.04082    0.04085 =
         0.04751   -0.02276   -0.00121   -0.01223
RESI 0
RESI CCF3 5
O1    2    0.549769    0.601384    0.543286    11.00000    0.02137    0.02549 =
         0.02036   -0.00747   -0.00256   -0.00866
C1    1    0.601414    0.648611    0.561581    11.00000    0.02215    0.02540 =
         0.02484   -0.00987   -0.00235   -0.00921
C2    1    0.739129    0.618657    0.588593    11.00000    0.02579    0.03022 =
         0.04390   -0.01280   -0.00872   -0.01170
F1    3    0.735643    0.578197    0.643872    11.00000    0.05277    0.03830 =
         0.04079   -0.00586   -0.02447   -0.01118
F2    3    0.803978    0.668114    0.590578    11.00000    0.02721    0.03748 =
         0.06431   -0.02216   -0.00729   -0.01326
F3    3    0.801518    0.581836    0.556968    11.00000    0.02040    0.04288 =
         0.06057   -0.02713   -0.00566   -0.00190
C3    1    0.605605    0.711691    0.506580    11.00000    0.03132    0.02904 =
         0.03396   -0.00769   -0.00123   -0.00875
F4    3    0.496345    0.728146    0.473922    11.00000    0.04220    0.02848 =
         0.04121   -0.00457   -0.01557   -0.00194
F5    3    0.697915    0.698117    0.471386    11.00000    0.04615    0.04281 =
         0.03823   -0.00820    0.01761   -0.01572
F6    3    0.623357    0.767115    0.521750    11.00000    0.04732    0.02639 =
         0.05317   -0.00988   -0.00426   -0.01219
C4    1    0.518735    0.672088    0.608526    11.00000    0.03638    0.04114 =
         0.03978   -0.02168    0.00199   -0.01619
F7    3    0.411872    0.714542    0.583623    11.00000    0.02720    0.05232 =
         0.06936   -0.03362    0.00802   -0.00438
F8    3    0.579572    0.704094    0.639128    11.00000    0.05162    0.05700 =
         0.04583   -0.03597    0.00755   -0.02159
F9    3    0.484451    0.617415    0.648169    11.00000    0.05268    0.05619 =
         0.03711   -0.02189    0.01832   -0.02719
RESI 0
RESI CCF3 6
O1    2    0.625998    0.464006    0.612437    11.00000    0.02130    0.02501 =
         0.01724   -0.00434   -0.00101   -0.00497
C1    1    0.659261    0.405362    0.658125    11.00000    0.02341    0.02400 =
         0.01934   -0.00582    0.00020   -0.00509
C2    1    0.798687    0.403030    0.679467    11.00000    0.02344    0.02967 =
         0.02535   -0.00582   -0.00333   -0.00041
F1    3    0.804034    0.443406    0.713619    11.00000    0.03598    0.04383 =
         0.03757   -0.01778   -0.01370   -0.00587
F2    3    0.853048    0.339073    0.711113    11.00000    0.03409    0.03595 =
         0.03982   -0.00322   -0.00936    0.00591
F3    3    0.870555    0.423010    0.633825    11.00000    0.02096    0.04660 =
         0.03789   -0.00611    0.00174   -0.00479
C3    1    0.652799    0.342168    0.636203    11.00000    0.03838    0.03088 =
         0.02657   -0.00937    0.00334   -0.01167
F4    3    0.545664    0.352359    0.603339    11.00000    0.05274    0.05032 =
         0.04130   -0.02150   -0.00709   -0.02322
F5    3    0.749212    0.332842    0.601431    11.00000    0.05792    0.03760 =
         0.03483   -0.01879    0.01515   -0.01029
F6    3    0.657138    0.284307    0.679641    11.00000    0.05751    0.02561 =
         0.04314   -0.00669    0.00838   -0.01318
C4    1    0.571316    0.404262    0.711179    11.00000    0.02973    0.03156 =
         0.02128   -0.00343   -0.00141   -0.00412
F7    3    0.461736    0.384938    0.701300    11.00000    0.02923    0.04273 =
         0.03366   -0.00203    0.00472   -0.01175
F8    3    0.624689    0.360325    0.761964    11.00000    0.04396    0.04305 =
         0.01718   -0.00014   -0.00051    0.00036
F9    3    0.544125    0.466081    0.718474    11.00000    0.03681    0.03837 =
         0.02759   -0.01335    0.00435    0.00023
RESI 0
RESI CCF3 7
O1    2    0.337142    1.040959    0.898878    11.00000    0.01027    0.03616 =
         0.02437   -0.00260   -0.00009   -0.00552
C1    1    0.211795    1.035533    0.902582    11.00000    0.01027    0.03155 =
         0.02234   -0.00644   -0.00238   -0.00630
C2    1    0.162390    1.030753    0.842415    11.00000    0.01917    0.03677 =
         0.02864   -0.01185   -0.00246   -0.00642
F1    3    0.205165    0.969684    0.835367    11.00000    0.04065    0.04131 =
         0.04256   -0.02370   -0.00136   -0.00432
F2    3    0.035965    1.042336    0.836474    11.00000    0.01791    0.05580 =
         0.03337   -0.01667   -0.00673   -0.00854
F3    3    0.203773    1.077466    0.797168    11.00000    0.02599    0.04837 =
         0.01884   -0.00940   -0.00046   -0.00755
C3    1    0.137774    1.100422    0.915788    11.00000    0.02206    0.03307 =
         0.01998   -0.00887    0.00125   -0.00534
F4    3    0.199952    1.116790    0.956991    11.00000    0.03809    0.04439 =
         0.02492   -0.01669   -0.00314   -0.01169
F5    3    0.125697    1.154993    0.866538    11.00000    0.03534    0.03029 =
         0.02659   -0.00503   -0.00236   -0.00124
F6    3    0.021914    1.092576    0.933917    11.00000    0.01999    0.04967 =
         0.03748   -0.01439    0.00889   -0.00348
C4    1    0.192712    0.970264    0.952875    11.00000    0.01906    0.03300 =
         0.02862   -0.00494    0.00206   -0.00652
F7    3    0.202360    0.980771    1.005734    11.00000    0.03231    0.04633 =
         0.02263   -0.00008   -0.00027   -0.01239
F8    3    0.079610    0.952424    0.947674    11.00000    0.02743    0.04816 =
         0.04335   -0.00523    0.00191   -0.02309
F9    3    0.282200    0.917905    0.951932    11.00000    0.03813    0.03223 =
         0.04465    0.00113    0.00653    0.00039
RESI 0
RESI CCF3 8
O1    2    0.576876    1.081765    0.894800    11.00000    0.01848    0.02431 =
         0.01940   -0.00286   -0.00206   -0.00728
C1    1    0.576548    1.149010    0.866263    11.00000    0.01566    0.02283 =
         0.01770   -0.00405   -0.00263   -0.00593
C2    1    0.489628    1.196000    0.896367    11.00000    0.02163    0.03147 =
         0.02515   -0.00821    0.00323   -0.00603
F1    3    0.366348    1.200014    0.880553    11.00000    0.01556    0.03711 =
         0.04207   -0.01194    0.00213   -0.00367
F2    3    0.514351    1.259739    0.881214    11.00000    0.03026    0.02904 =
         0.05123   -0.01975    0.00292   -0.00707
F3    3    0.501114    1.170686    0.954849    11.00000    0.03798    0.05605 =
         0.02232   -0.01543    0.00517    0.00018
C3    1    0.715695    1.162682    0.868628    11.00000    0.01993    0.02793 =
         0.02554   -0.00484   -0.00103   -0.00973
F4    3    0.796738    1.112532    0.858107    11.00000    0.01707    0.03649 =
         0.03835   -0.01019    0.00420   -0.00494
F5    3    0.745937    1.165912    0.922857    11.00000    0.02494    0.03489 =
         0.02979   -0.00768   -0.00878   -0.01323
F6    3    0.731315    1.221645    0.829446    11.00000    0.02342    0.03468 =
         0.03190    0.00050    0.00031   -0.01429
C4    1    0.530508    1.166559    0.799925    11.00000    0.02239    0.03033 =
         0.01921   -0.00456   -0.00109   -0.01044
F7    3    0.620017    1.141441    0.768752    11.00000    0.03657    0.04754 =
         0.02003   -0.01196    0.00580   -0.00813
F8    3    0.498556    1.233813    0.773905    11.00000    0.03071    0.03062 =
         0.02266    0.00101   -0.00428   -0.00905
F9    3    0.428232    1.138253    0.795649    11.00000    0.02727    0.03836 =
         0.02273   -0.00402   -0.00748   -0.01567
RESI 0
RESI CCF3 9
O1    2    0.569853    0.939434    0.916712    11.00000    0.02022    0.02191 =
         0.02352   -0.00829    0.00098   -0.00004
C1    1    0.627200    0.907809    0.878395    11.00000    0.02220    0.03159 =
         0.01761   -0.01236   -0.00223    0.00014
C2    1    0.763256    0.925908    0.866856    11.00000    0.02375    0.06458 =
         0.03487   -0.02553    0.00411   -0.00698
F1    3    0.758173    0.988204    0.828713    11.00000    0.04898    0.06341 =
         0.04832   -0.02654    0.02226   -0.02752
F2    3    0.836757    0.881073    0.844167    11.00000    0.02719    0.08988 =
         0.05253   -0.03688    0.00481    0.00687
F3    3    0.820461    0.924478    0.916945    11.00000    0.02444    0.11708 =
         0.04392   -0.04359   -0.00276   -0.01469
C3    1    0.634639    0.829710    0.906190    11.00000    0.05541    0.03497 =
         0.02596   -0.01384   -0.00022   -0.00005
F4    3    0.524291    0.814710    0.927770    11.00000    0.07578    0.03591 =
         0.03857   -0.01275    0.01217   -0.02167
F5    3    0.722784    0.806176    0.950506    11.00000    0.07247    0.04688 =
         0.03602   -0.00701   -0.01560    0.02602
F6    3    0.664196    0.795534    0.865768    11.00000    0.09386    0.03578 =
         0.04098   -0.02195    0.00789    0.00484
C4    1    0.549923    0.931679    0.817497    11.00000    0.03137    0.03980 =
         0.02419   -0.01495   -0.00480   -0.00309
F7    3    0.448955    0.899683    0.822016    11.00000    0.03153    0.06622 =
         0.04629   -0.02711   -0.00702   -0.01320
F8    3    0.616378    0.918105    0.773765    11.00000    0.04263    0.05099 =
         0.02230   -0.01803    0.00043   -0.00332
F9    3    0.507258    0.998500    0.802739    11.00000    0.04406    0.03524 =
         0.02820   -0.00807   -0.01039    0.00637
RESI 0
RESI CCF3 10
O1    2    0.880773    0.516977    0.888290    11.00000    0.02101    0.02652 =
         0.01865   -0.00626   -0.00378   -0.00193
C1    1    0.852412    0.570505    0.838367    11.00000    0.02693    0.03031 =
         0.01968   -0.00692   -0.00318   -0.00493
C2    1    0.947817    0.564250    0.789494    11.00000    0.03254    0.04951 =
         0.02055   -0.00681   -0.00197   -0.00643
F1    3    1.056254    0.583771    0.800291    11.00000    0.03229    0.07629 =
         0.03577    0.00137    0.00202   -0.02040
F2    3    0.902031    0.604087    0.735839    11.00000    0.04671    0.06708 =
         0.01804   -0.00421   -0.00070    0.00077
F3    3    0.975523    0.500319    0.788062    11.00000    0.04060    0.05679 =
         0.03067   -0.01920    0.00224    0.00728
C3    1    0.716164    0.569351    0.814977    11.00000    0.02736    0.04148 =
         0.02759   -0.01008   -0.00762    0.00563
F4    3    0.638190    0.554857    0.859545    11.00000    0.02240    0.06278 =
         0.03822   -0.01177   -0.00124    0.00299
F5    3    0.717631    0.522311    0.787057    11.00000    0.03877    0.06147 =
         0.03958   -0.02490   -0.01326   -0.00708
F6    3    0.664441    0.629929    0.776769    11.00000    0.04632    0.05187 =
         0.03673   -0.00273   -0.01450    0.01431
C4    1    0.851954    0.639093    0.852776    11.00000    0.06986    0.03117 =
         0.02458   -0.00404   -0.00337   -0.01484
F7    3    0.747993    0.653952    0.881696    11.00000    0.09567    0.03123 =
         0.03620   -0.01315    0.00933    0.00369
F8    3    0.855423    0.691578    0.804909    11.00000    0.10372    0.03253 =
         0.03805   -0.00022    0.00094   -0.02130
F9    3    0.953077    0.632983    0.888276    11.00000    0.09813    0.05174 =
         0.04334   -0.01280   -0.01744   -0.04189
RESI 0
RESI CCF3 11
O1    2    0.944346    0.387830    0.974021    11.00000    0.01991    0.02327 =
         0.02677   -0.01025   -0.00127   -0.00815
C1    1    0.894106    0.335382    0.963565    11.00000    0.01879    0.02385 =
         0.03665   -0.01458   -0.00141   -0.00781
C2    1    0.973277    0.305321    0.919225    11.00000    0.03070    0.03894 =
         0.05109   -0.02524    0.00374   -0.01415
F1    3    1.080740    0.264066    0.946608    11.00000    0.02302    0.04112 =
         0.07718   -0.03285    0.00527   -0.00248
F2    3    0.909244    0.270062    0.893418    11.00000    0.03691    0.05584 =
         0.06429   -0.04597    0.01022   -0.02161
F3    3    1.007151    0.356793    0.874838    11.00000    0.04173    0.05127 =
         0.03727   -0.02309    0.00948   -0.02240
C3    1    0.754326    0.360357    0.938811    11.00000    0.02614    0.03557 =
         0.06002   -0.02329   -0.00239   -0.00857
F4    3    0.692677    0.402338    0.966290    11.00000    0.01886    0.04336 =
         0.07221   -0.03453   -0.00354   -0.00009
F5    3    0.752605    0.394405    0.880372    11.00000    0.04347    0.05008 =
         0.05422   -0.01449   -0.02449   -0.00897
F6    3    0.691488    0.307934    0.945421    11.00000    0.02067    0.04872 =
         0.08734   -0.03940    0.00274   -0.01448
C4    1    0.897613    0.278205    1.023723    11.00000    0.03731    0.03549 =
         0.04831   -0.01112    0.00549   -0.01453
F7    3    0.806100    0.298319    1.057969    11.00000    0.06098    0.04841 =
         0.05895   -0.01775    0.02987   -0.02181
F8    3    0.879145    0.218940    1.016165    11.00000    0.05826    0.02579 =
         0.07511   -0.01088   -0.00444   -0.01812
F9    3    1.008420    0.266821    1.052904    11.00000    0.04482    0.03058 =
         0.04505   -0.00500   -0.01021   -0.00524
RESI 0
RESI CCF3 12
O1    2    1.140268    0.461916    0.910956    11.00000    0.01386    0.03253 =
         0.02270   -0.01169    0.00045   -0.00281
C1    1    1.269481    0.443281    0.918161    11.00000    0.01287    0.03173 =
         0.02494   -0.01345    0.00112   -0.00567
C2    1    1.326711    0.453751    0.856219    11.00000    0.02247    0.04553 =
         0.02901   -0.01342    0.00530   -0.00995
F1    3    1.327748    0.520067    0.829765    11.00000    0.04080    0.05294 =
         0.03669   -0.00045    0.01081   -0.01573
F2    3    1.445884    0.420836    0.859997    11.00000    0.02206    0.06583 =
         0.04195   -0.02163    0.01425   -0.00566
F3    3    1.257890    0.431668    0.821370    11.00000    0.03714    0.07423 =
         0.02773   -0.02761    0.00447   -0.01396
C3    1    1.305075    0.366255    0.954643    11.00000    0.01777    0.03190 =
         0.03204   -0.01248   -0.00088   -0.00269
F4    3    1.231123    0.351548    1.000242    11.00000    0.02751    0.03730 =
         0.03012   -0.00490    0.00298   -0.00588
F5    3    1.288895    0.326020    0.921036    11.00000    0.02907    0.03589 =
         0.04607   -0.02395    0.00389   -0.00532
F6    3    1.425567    0.350115    0.975800    11.00000    0.01859    0.04425 =
         0.04884   -0.01198   -0.00581    0.00033
C4    1    1.320869    0.489280    0.951368    11.00000    0.01684    0.03502 =
         0.03326   -0.01787    0.00175   -0.00685
F7    3    1.297699    0.469242    1.008736    11.00000    0.03429    0.05036 =
         0.03137   -0.02420   -0.00197   -0.00806
F8    3    1.446693    0.487081    0.946575    11.00000    0.01756    0.05347 =
         0.05745   -0.02847    0.00004   -0.01294
F9    3    1.265323    0.554334    0.928974    11.00000    0.03306    0.03361 =
         0.05524   -0.02088   -0.00284   -0.00805
RESI 0
RESI CCF3 13
PART 2  -21
O1    2    1.169096    0.980637    0.597211   -21.00000    0.01718    0.05667 =
         0.02704   -0.02169   -0.00109   -0.00832
C1    1    1.267251    1.006329    0.615135   -21.00000    0.01546    0.06120 =
         0.03368   -0.02173   -0.00009   -0.01134
C2    1    1.228553    1.033761    0.668298   -21.00000    0.02868    0.06034 =
         0.02733   -0.01602   -0.00034   -0.01597
F1    3    1.152109    1.094538    0.650528   -21.00000    0.03545    0.07059 =
         0.04072   -0.03606   -0.00754   -0.00576
F2    3    1.328068    1.042992    0.697267   -21.00000    0.04178    0.07929 =
         0.03800   -0.02625   -0.00628   -0.02620
F3    3    1.164921    0.991634    0.707165   -21.00000    0.05725    0.08870 =
         0.02560   -0.02316    0.00399   -0.03859
C3    1    1.385208    0.948887    0.632745   -21.00000    0.02289    0.06428 =
         0.05859   -0.01971   -0.01120   -0.00554
F4    3    1.400664    0.913512    0.593403   -21.00000    0.01350    0.06291 =
         0.06878   -0.02504   -0.01495    0.00930
F5    3    1.371394    0.906256    0.685850   -21.00000    0.05533    0.08231 =
         0.07053   -0.00425    0.00718    0.00225
F6    3    1.490651    0.975237    0.635438   -21.00000    0.02349    0.08578 =
         0.06069   -0.02428   -0.01859   -0.01025
C4    1    1.299228    1.065268    0.562041   -21.00000    0.01622    0.06851 =
         0.02936   -0.01710    0.00047   -0.01069
F7    3    1.370123    1.042276    0.523255   -21.00000    0.05948    0.07341 =
         0.04943   -0.02450    0.03058   -0.01579
F8    3    1.361693    1.107814    0.578799   -21.00000    0.03330    0.07361 =
         0.00951   -0.00743    0.00432   -0.02579
F9    3    1.188855    1.100862    0.535823   -21.00000    0.02361    0.08966 =
         0.05258   -0.01381   -0.01064   -0.00471
PART 0
RESI 0
HKLF 4




REM  p-1-firsttry_a.res in P-1
REM wR2 = 0.1766, GooF = S = 1.077, Restrained GooF = 0.806 for all data
REM R1 = 0.0648 for 14827 Fo > 4sig(Fo) and 0.0896 for all 19930 data
REM 1838 parameters refined using 25188 restraints

END  
     
WGHT      0.0730     16.6540 

REM Highest difference peak  0.999,  deepest hole -1.312,  1-sigma level  0.113
Q1    1  -0.1809  0.7353  0.3512  11.00000  0.05    1.00
Q2    1   1.4015  0.7530  0.8190  11.00000  0.05    0.91
Q3    1  -0.1327  0.7018  0.3240  11.00000  0.05    0.88
Q4    1   1.3857  0.6922  0.8079  11.00000  0.05    0.84
Q5    1   1.3333  0.7237  0.8400  11.00000  0.05    0.82
Q6    1  -0.1154  0.7721  0.2708  11.00000  0.05    0.81
Q7    1  -0.1538  0.7991  0.2942  11.00000  0.05    0.79
Q8    1   0.5188  0.9707  0.9296  11.00000  0.05    0.76
Q9    1   1.3230  0.7649  0.8308  11.00000  0.05    0.75
Q10   1   1.3673  0.7912  0.7820  11.00000  0.05    0.71
Q11   1   0.9783  1.0236  0.5787  11.00000  0.05    0.70
Q12   1   1.4097  0.7514  0.7570  11.00000  0.05    0.67
Q13   1   1.0727  0.8514  0.7089  11.00000  0.05    0.64
Q14   1   1.0231  0.9334  0.5910  11.00000  0.05    0.64
Q15   1   0.6192  0.4024  0.6858  11.00000  0.05    0.58
Q16   1   0.8172  0.3753  0.8594  11.00000  0.05    0.58
Q17   1   0.7044  0.8723  0.6378  11.00000  0.05    0.58
Q18   1   0.7572  0.9873  0.6742  11.00000  0.05    0.57
Q19   1   0.4875  1.0643  0.9073  11.00000  0.05    0.57
Q20   1   0.8645  0.5964  0.8475  11.00000  0.05    0.57
